NAME:12290
COMMENT: From "On the generation of Metric TSP instances with a large integrality gap by branch-and-cut" (Vercesi, Gualandi, Mastrolilli, Gambardella) - https://arxiv.org/abs/2109.02454
TYPE: TSP
DIMENSION: 12
EDGE_WEIGHT_TYPE: EXPLICIT
EDGE_WEIGHT_FORMAT: UPPER_ROW
EDGE_WEIGHT_SECTION
142 236 94 86 47 123 170 114 282 94 47 284 84 56 189 113 28 28 198 104 95 200 228 189 171 312 256 142 330 283 28 105 29 112 56 282 188 141 133 57 84 28 254 160 113 76 217 161 329 141 94 141 85 311 217 170 56 170 76 123 226 132 85 188 235 47 
EOF